5	348	{'weight': 1.06641121122701}
348	157	{'weight': 1.048494533719526}
348	167	{'weight': 1.0969159732055678}
348	295	{'weight': 1.0375321264640969}
348	307	{'weight': 1.078328929952773}
6	127	{'weight': 1.0998598355933433}
6	159	{'weight': 1.092934259794359}
6	493	{'weight': 1.0582796529074865}
6	651	{'weight': 1.0989744894475573}
6	952	{'weight': 1.0908735165862955}
127	7	{'weight': 1.0944631987684001}
651	146	{'weight': 1.0847647515137686}
952	20	{'weight': 0.8462051696855718}
952	597	{'weight': 0.953473884478644}
952	718	{'weight': 1.034062677489485}
952	749	{'weight': 0.9019655923655343}
952	836	{'weight': 1.0912177671186651}
952	887	{'weight': 1.0863054164347057}
952	954	{'weight': 1.0814021609677347}
7	66	{'weight': 1.0856072042595746}
7	875	{'weight': 1.077619782420423}
875	753	{'weight': 0.4374674424477921}
10	103	{'weight': 1.0973108473575108}
103	717	{'weight': 1.0085144920524793}
103	904	{'weight': 1.0256908942095453}
103	969	{'weight': 1.075339803945833}
12	15	{'weight': 1.0748028984566027}
15	188	{'weight': 1.0970113092860108}
19	953	{'weight': 0.6607179210629709}
20	266	{'weight': 1.0804293546730048}
20	597	{'weight': 1.0823511979606515}
20	636	{'weight': 0.9587543435991948}
20	749	{'weight': 1.0290152718696641}
20	896	{'weight': 0.9135443516138588}
266	117	{'weight': 1.090151277281963}
266	639	{'weight': 1.0385175479703892}
266	896	{'weight': 0.9488827921696661}
597	749	{'weight': 0.8493373379850052}
636	147	{'weight': 0.8200198229048378}
636	216	{'weight': 1.002213399269877}
636	364	{'weight': 1.023150297872967}
636	551	{'weight': 0.9073829854973706}
636	749	{'weight': 0.91187558794964}
636	896	{'weight': 0.9909920478344779}
636	950	{'weight': 1.070497521880092}
636	969	{'weight': 1.0890126233400745}
896	147	{'weight': 0.9255674412813433}
896	887	{'weight': 1.0374007670292902}
896	921	{'weight': 1.09406399198818}
22	415	{'weight': 0.4796058848113836}
24	667	{'weight': 1.059405556699017}
667	117	{'weight': 1.0901986902100589}
667	445	{'weight': 0.9865693682566429}
667	653	{'weight': 0.9422166118640245}
667	656	{'weight': 0.9877920166724019}
667	697	{'weight': 0.9853192667159072}
667	808	{'weight': 0.9298900727995623}
25	26	{'weight': 0.26493569605479067}
27	332	{'weight': 0.4392945146256315}
27	769	{'weight': 0.5718704825821964}
332	769	{'weight': 0.6039254045815476}
34	437	{'weight': 0.36346623577515774}
34	745	{'weight': 1.0752707439616032}
745	504	{'weight': 1.0931393907510318}
35	64	{'weight': 1.0725194204670898}
35	115	{'weight': 1.0664368406761924}
35	202	{'weight': 1.0943841818185756}
35	336	{'weight': 1.0492990847930188}
64	65	{'weight': 1.0656523047632176}
37	498	{'weight': 0.4274036830293236}
40	41	{'weight': 0.7760301399674814}
40	398	{'weight': 0.4773217134917274}
40	881	{'weight': 1.0137067389627101}
41	261	{'weight': 1.0821379041512718}
41	398	{'weight': 0.5467077479585833}
41	863	{'weight': 1.0539789797380508}
881	157	{'weight': 1.065236023548846}
881	529	{'weight': 1.034376621721273}
881	895	{'weight': 1.0952827915394159}
42	619	{'weight': 1.0856551406781227}
43	472	{'weight': 1.0873251073778765}
472	544	{'weight': 1.092825290341112}
44	285	{'weight': 0.8495324246259774}
44	784	{'weight': 0.8178308160265733}
285	784	{'weight': 1.0455347062002034}
51	674	{'weight': 1.0703310635414789}
674	956	{'weight': 1.0931953886932824}
674	963	{'weight': 1.0922371721137207}
674	965	{'weight': 1.0910990355349377}
53	322	{'weight': 0.8715874832026091}
53	439	{'weight': 1.0453388939659511}
53	917	{'weight': 0.9337407477521253}
439	522	{'weight': 1.0435868881908856}
439	917	{'weight': 0.5109820490020822}
917	475	{'weight': 1.01514619077386}
917	522	{'weight': 1.0249159341588732}
55	500	{'weight': 0.8693157945299911}
58	147	{'weight': 0.9896977028135006}
58	551	{'weight': 0.9048214267903568}
58	558	{'weight': 0.9958605517872091}
58	678	{'weight': 1.0087089293631653}
147	216	{'weight': 1.0605142076276777}
147	364	{'weight': 1.036701078009631}
147	551	{'weight': 1.063492660229237}
551	216	{'weight': 1.0471497017126898}
551	459	{'weight': 1.0899086761574834}
551	556	{'weight': 1.0855892652449293}
551	624	{'weight': 1.0997700403123671}
551	950	{'weight': 1.0850251831409583}
558	243	{'weight': 1.0033487709968318}
558	295	{'weight': 1.0584102315211361}
558	513	{'weight': 1.0521635084626122}
558	633	{'weight': 1.0924017133516437}
69	320	{'weight': 0.31003848914174026}
76	553	{'weight': 1.0937582909975812}
553	939	{'weight': 1.0265606429474072}
86	235	{'weight': 1.098472746284028}
86	333	{'weight': 1.0867982546653514}
86	804	{'weight': 1.0959536328196486}
86	809	{'weight': 1.0643525027942187}
235	520	{'weight': 1.0673449152052379}
235	529	{'weight': 1.0805835061075035}
333	179	{'weight': 1.0541180800999705}
804	626	{'weight': 1.0979017647257967}
100	625	{'weight': 1.0982505323816416}
625	626	{'weight': 1.0873701435443173}
625	656	{'weight': 0.9960722588896145}
625	697	{'weight': 0.48513726956102404}
625	808	{'weight': 1.0032727401575419}
625	892	{'weight': 1.0956577028697418}
625	918	{'weight': 0.2664090587519862}
717	904	{'weight': 1.0259165547104725}
904	887	{'weight': 1.0789482809154936}
969	887	{'weight': 1.0674347133173239}
110	844	{'weight': 1.050492591712077}
844	571	{'weight': 1.092207000187688}
117	665	{'weight': 0.8323920222459151}
123	548	{'weight': 1.0855393968066525}
548	191	{'weight': 0.6303986422251513}
548	374	{'weight': 1.0988625038110404}
131	237	{'weight': 1.093376907528259}
132	373	{'weight': 1.0899567670349466}
139	546	{'weight': 0.9797196329711121}
146	799	{'weight': 1.0906266225505676}
799	265	{'weight': 1.0951623612009398}
799	529	{'weight': 1.084811871165021}
799	681	{'weight': 1.0764544493203263}
799	951	{'weight': 1.0988957760451363}
216	950	{'weight': 1.0340471796763133}
364	383	{'weight': 1.0763030584000486}
364	566	{'weight': 1.046288426590164}
149	486	{'weight': 0.528310417164088}
151	715	{'weight': 1.0340933766772564}
152	428	{'weight': 1.0994334956725151}
157	626	{'weight': 0.9860663672049813}
157	656	{'weight': 1.0290006225464798}
656	808	{'weight': 1.0310716213169981}
161	513	{'weight': 1.0924137265390972}
513	220	{'weight': 0.8262748492963031}
513	295	{'weight': 0.7460928570205788}
513	534	{'weight': 0.6186581933931506}
513	761	{'weight': 1.032120231905238}
163	307	{'weight': 1.0864977209052893}
163	391	{'weight': 1.0522841441671515}
179	633	{'weight': 1.097807657811666}
633	459	{'weight': 1.0616793505550834}
183	566	{'weight': 1.0939848041802513}
189	958	{'weight': 0.4212373997876458}
189	690	{'weight': 0.39598427082403553}
958	690	{'weight': 0.4470873261055387}
958	887	{'weight': 1.0313139713404351}
198	491	{'weight': 0.5109605467983509}
200	455	{'weight': 0.9186130833700654}
200	510	{'weight': 1.005725657278905}
200	555	{'weight': 1.0784030553124415}
200	560	{'weight': 0.9743484153695076}
200	695	{'weight': 0.8765698388752096}
455	443	{'weight': 1.0241849361345277}
455	473	{'weight': 0.9331532981795688}
455	510	{'weight': 1.0775373656932419}
455	560	{'weight': 0.9940802003027815}
455	797	{'weight': 1.0738775482787408}
455	828	{'weight': 1.0770968331921713}
455	913	{'weight': 1.054094747407477}
455	555	{'weight': 0.9043278404228148}
455	559	{'weight': 1.0285970158379676}
510	555	{'weight': 1.027987294632626}
510	560	{'weight': 0.9818748790528316}
510	762	{'weight': 0.9543301739090727}
555	443	{'weight': 0.9811003015263081}
555	473	{'weight': 0.944885779550683}
555	559	{'weight': 0.784387815436373}
555	560	{'weight': 0.6358583709072798}
555	762	{'weight': 0.5605437298847783}
555	797	{'weight': 0.6536830588993771}
555	913	{'weight': 0.856946162354944}
560	287	{'weight': 1.0865475165738852}
560	443	{'weight': 0.9042532979465677}
560	473	{'weight': 0.8856209050381442}
560	559	{'weight': 0.801888227752541}
560	762	{'weight': 0.6753523760731152}
560	797	{'weight': 0.7395099786830391}
560	913	{'weight': 1.0293453180840293}
203	660	{'weight': 0.8083484074885752}
204	429	{'weight': 0.8590539851599162}
204	762	{'weight': 1.093248663112253}
762	287	{'weight': 0.518623226786552}
762	288	{'weight': 0.6306265960069612}
762	443	{'weight': 0.9639278544837188}
762	473	{'weight': 0.9242814301518422}
762	559	{'weight': 0.8600668114337625}
762	797	{'weight': 0.705575771767312}
205	630	{'weight': 1.020590825931678}
205	654	{'weight': 0.4828761196616526}
205	709	{'weight': 0.9396172945279443}
205	826	{'weight': 0.843937472238768}
205	834	{'weight': 0.4230071208253686}
205	960	{'weight': 0.6256531350155111}
630	654	{'weight': 0.8921712591725655}
630	709	{'weight': 0.8627827769459496}
630	826	{'weight': 0.8869089129946415}
630	834	{'weight': 0.8637345934934063}
630	960	{'weight': 0.9427139321092098}
654	709	{'weight': 0.8162930475595517}
654	712	{'weight': 1.02106581138528}
654	826	{'weight': 0.6213838874018534}
654	834	{'weight': 0.40980691753555876}
654	956	{'weight': 1.096843344979226}
654	960	{'weight': 0.3339531556716671}
709	826	{'weight': 0.6129003526693306}
709	834	{'weight': 0.8652516892609358}
709	960	{'weight': 0.8569555287904147}
826	520	{'weight': 1.0733497809393449}
826	649	{'weight': 1.0950142930737503}
826	697	{'weight': 1.0836370132682982}
826	834	{'weight': 0.7263961906171121}
826	956	{'weight': 1.0670068679450453}
826	960	{'weight': 0.6652582636814918}
826	811	{'weight': 1.0207210361606078}
834	774	{'weight': 1.084165100573902}
834	811	{'weight': 0.9022116256311546}
834	960	{'weight': 0.4119052090157383}
960	774	{'weight': 0.9687477342330337}
960	811	{'weight': 0.8995375324844465}
960	887	{'weight': 0.9369541192747929}
950	887	{'weight': 1.097152345663874}
218	882	{'weight': 0.9266903079852454}
219	526	{'weight': 0.8730966178373377}
219	964	{'weight': 1.0381559962672804}
219	966	{'weight': 0.8833000272191177}
219	506	{'weight': 0.981979631787998}
526	506	{'weight': 0.7721746694943629}
526	967	{'weight': 0.8802115969401791}
964	495	{'weight': 1.0644437562427145}
966	543	{'weight': 0.635501945374141}
966	887	{'weight': 1.097203535817676}
966	963	{'weight': 1.0958906847066405}
220	295	{'weight': 0.9053118184534749}
220	639	{'weight': 1.0420624841350001}
220	761	{'weight': 1.0879071878209616}
220	534	{'weight': 0.8826738200074715}
295	534	{'weight': 0.8484632816157911}
295	761	{'weight': 1.0720686360613467}
639	265	{'weight': 1.092336550973627}
761	649	{'weight': 1.0862581834049416}
223	459	{'weight': 1.039873535547424}
223	957	{'weight': 0.914335780656221}
224	734	{'weight': 1.0908587432866785}
734	954	{'weight': 1.0753207431031298}
226	870	{'weight': 0.6652218925506481}
226	937	{'weight': 0.8913116785641081}
870	937	{'weight': 0.6141684752041544}
231	269	{'weight': 1.0401825486110365}
520	641	{'weight': 0.8908485106264554}
520	642	{'weight': 0.8991315461993441}
520	791	{'weight': 0.9317550064517462}
520	801	{'weight': 0.7964817218350233}
520	819	{'weight': 0.8146253219182358}
267	906	{'weight': 1.099482347169572}
906	268	{'weight': 1.0723537504897533}
906	887	{'weight': 1.0430682039774148}
270	700	{'weight': 1.0957015062129942}
284	572	{'weight': 1.0902566283006285}
287	288	{'weight': 0.5382828046143312}
287	797	{'weight': 1.0778648013553476}
287	457	{'weight': 1.0746038288357391}
288	457	{'weight': 1.0065071953685205}
288	797	{'weight': 1.0338426026383152}
797	443	{'weight': 1.0827923171535856}
797	473	{'weight': 0.9977938737083788}
797	559	{'weight': 1.0369442937502107}
797	913	{'weight': 0.9860052500278325}
308	387	{'weight': 1.0484178419287542}
387	962	{'weight': 1.0345647574977042}
316	591	{'weight': 1.0968860829793687}
331	608	{'weight': 0.6504282628214009}
352	380	{'weight': 0.5389275158468367}
352	385	{'weight': 0.9022055987719235}
380	385	{'weight': 0.9239742271595425}
356	726	{'weight': 0.8602687219879616}
381	540	{'weight': 1.0785820020848083}
386	629	{'weight': 1.0875889292623473}
962	719	{'weight': 0.6219626837279896}
962	963	{'weight': 0.4492668523961227}
423	751	{'weight': 0.9013800424362992}
441	739	{'weight': 1.0683392207340165}
442	614	{'weight': 0.5364892299526719}
443	473	{'weight': 0.8759658871474438}
443	557	{'weight': 0.9469176686881686}
443	559	{'weight': 1.0531719746865453}
443	913	{'weight': 1.0925315604112698}
473	559	{'weight': 0.9752086935323293}
559	913	{'weight': 1.0182160779393086}
913	923	{'weight': 1.0635418735069475}
445	653	{'weight': 1.0052000440630053}
445	670	{'weight': 0.91561598788938}
445	697	{'weight': 1.0953358088452085}
445	808	{'weight': 0.8893102969331932}
670	497	{'weight': 1.0883695371126578}
697	808	{'weight': 1.010042230976807}
697	918	{'weight': 0.507738166006371}
808	918	{'weight': 1.0841663179354568}
446	567	{'weight': 1.075974595654935}
567	702	{'weight': 1.0778726925424458}
447	515	{'weight': 0.36448894274044996}
448	449	{'weight': 1.092739012124669}
449	603	{'weight': 0.8685498750773338}
452	941	{'weight': 0.5246657657296818}
454	460	{'weight': 0.906062822816735}
460	466	{'weight': 1.0979231119731452}
461	552	{'weight': 1.0753700155067227}
461	839	{'weight': 1.0760513460897139}
467	642	{'weight': 1.0651283262378624}
467	801	{'weight': 1.093100732645775}
467	819	{'weight': 0.9237764860245582}
467	641	{'weight': 1.0842677890726111}
642	641	{'weight': 0.672031929013379}
642	791	{'weight': 0.9836202376028912}
642	801	{'weight': 1.0692778934290927}
642	819	{'weight': 0.6752793587607208}
801	819	{'weight': 0.8452359198484813}
801	791	{'weight': 0.9990701144543293}
819	641	{'weight': 0.8933999443895881}
470	485	{'weight': 0.6331290946778761}
470	688	{'weight': 0.9787557159654636}
485	503	{'weight': 0.48471335766199714}
485	688	{'weight': 0.9754574192226468}
485	696	{'weight': 1.005768868825051}
485	850	{'weight': 0.8306679425646906}
477	775	{'weight': 0.7047164553682117}
477	599	{'weight': 1.0521741784127905}
775	599	{'weight': 1.0890471646401765}
482	484	{'weight': 0.9007680646940281}
503	696	{'weight': 0.9074524287935002}
503	850	{'weight': 0.7469155473687771}
503	892	{'weight': 0.6937485974939631}
696	504	{'weight': 1.0519560178807976}
696	850	{'weight': 0.7588740765097177}
696	892	{'weight': 0.896915890730208}
850	892	{'weight': 0.7464201387718412}
488	845	{'weight': 0.9759973294531545}
488	932	{'weight': 1.0142122804333122}
845	932	{'weight': 0.27538816474591915}
892	887	{'weight': 1.0813370239129738}
505	512	{'weight': 1.0081720510215497}
519	836	{'weight': 1.0365652517787711}
836	835	{'weight': 0.7878149812682911}
836	838	{'weight': 0.784635954593027}
521	837	{'weight': 0.35656358994248066}
523	624	{'weight': 1.0974407696727506}
550	689	{'weight': 1.0756221244544157}
563	564	{'weight': 0.7108023210917698}
580	611	{'weight': 1.04082440409751}
580	873	{'weight': 1.0648338116985725}
580	916	{'weight': 0.9807506308161553}
611	916	{'weight': 0.5489991583624317}
611	873	{'weight': 0.7053165472413759}
873	916	{'weight': 0.7061900718411881}
916	887	{'weight': 1.0631622776898964}
605	610	{'weight': 0.944402862936689}
918	887	{'weight': 1.049573882101323}
638	659	{'weight': 0.6338886549268592}
645	852	{'weight': 0.7197822014126911}
956	887	{'weight': 1.0780557386727156}
963	719	{'weight': 0.7498982326751226}
965	887	{'weight': 1.058746364097291}
677	720	{'weight': 1.07795643352447}
692	779	{'weight': 0.5930602599518597}
718	766	{'weight': 1.0442157464152644}
766	858	{'weight': 0.7873248400541505}
774	811	{'weight': 0.7422175658246041}
951	887	{'weight': 1.0191976072672122}
813	854	{'weight': 0.8842221919015595}
835	838	{'weight': 0.7228987987452459}
932	887	{'weight': 1.052288373141674}
895	887	{'weight': 1.074770702199621}
887	891	{'weight': 1.0570993360285041}
887	908	{'weight': 1.0722628022715566}
887	909	{'weight': 1.076867877355793}
887	910	{'weight': 1.097991100996607}
887	921	{'weight': 1.0921724340028658}
887	924	{'weight': 1.0975102967990844}
887	927	{'weight': 1.0397296780494942}
887	931	{'weight': 1.0984125818587274}
887	934	{'weight': 1.0614640985720192}
887	942	{'weight': 1.0869105066052023}
887	947	{'weight': 1.077035065222398}
887	959	{'weight': 1.0700683744192077}
887	968	{'weight': 1.0827454888489514}
887	972	{'weight': 1.077986411996879}
